
Gurobi 9.0.2 (win64) logging started Sat Oct 10 15:43:55 2020

Changed value of parameter logfile to result\v6.2-20201010T1221\scenario_2030_eff080_cab2000.log
   Prev:   Default: 
Gurobi Optimizer version 9.0.2 build v9.0.2rc0 (win64)
Optimize a model with 1384150 rows, 884815 columns and 3912197 nonzeros
Model fingerprint: 0xde64978e
Coefficient statistics:
  Matrix range     [1e-07, 3e+05]
  Objective range  [1e+00, 1e+00]
  Bounds range     [0e+00, 0e+00]
  RHS range        [2e-05, 3e+08]
Warning: Model contains large matrix coefficient range
         Consider reformulating model or setting NumericFocus parameter
         to avoid numerical issues.

Concurrent LP optimizer: primal simplex, dual simplex, and barrier
Showing barrier log only...

Presolve removed 1129315 rows and 656241 columns
Presolve time: 3.39s
Presolved: 254835 rows, 342440 columns, 891938 nonzeros

Ordering time: 0.13s

Barrier statistics:
 Dense cols : 9
 AA' NZ     : 8.194e+05
 Factor NZ  : 4.461e+06 (roughly 300 MBytes of memory)
 Factor Ops : 1.125e+08 (less than 1 second per iteration)
 Threads    : 30

                  Objective                Residual
Iter       Primal          Dual         Primal    Dual     Compl     Time
   0  -1.93474861e+16 -1.58516112e+15  5.80e+06 1.56e+04  2.32e+12     4s
   1  -2.97201633e+15 -1.58855412e+15  8.83e+05 4.70e+06  7.65e+11     4s
   2  -1.25596683e+15 -1.27887182e+15  3.71e+05 8.32e+05  2.14e+11     5s
   3  -4.54111491e+14 -1.03391813e+15  1.31e+05 2.40e+05  7.22e+10     5s
   4  -1.06888770e+14 -6.37689005e+14  2.84e+04 5.84e+04  1.67e+10     5s
   5  -3.45926246e+13 -4.32172564e+14  9.20e+03 2.94e+04  7.01e+09     6s
   6  -1.63119474e+13 -2.50225856e+14  4.56e+03 9.52e+03  2.79e+09     6s
   7  -6.49970134e+12 -1.42995106e+14  1.95e+03 1.87e+03  8.91e+08     6s
   8  -1.09530868e+12 -6.44034739e+13  4.63e+02 2.50e+02  1.95e+08     7s
   9   5.24257862e+11 -8.02669723e+12  2.00e+00 2.49e+00  1.28e+07     7s
  10   1.53487244e+11 -1.22036631e+12  1.62e-01 2.48e-01  2.00e+06     7s
  11   6.38398651e+10 -3.97021876e+11  4.92e-02 7.45e-09  6.69e+05     8s
  12   2.46966860e+10 -1.53340065e+11  1.42e-02 1.12e-08  2.58e+05     8s
  13   1.53271708e+10 -6.90775257e+10  6.92e-03 1.12e-08  1.22e+05     8s
  14   1.52030805e+10 -5.59162467e+10  5.88e-03 1.12e-08  1.03e+05     8s
  15   1.11625660e+10 -2.97207560e+10  3.41e-03 1.12e-08  5.92e+04     9s
  16   1.01777310e+10 -4.55833647e+09  2.42e-03 1.12e-08  2.13e+04     9s
  17   7.72447947e+09 -3.16182484e+08  9.18e-04 7.45e-09  1.16e+04     9s
  18   7.16897574e+09  3.13905914e+09  5.67e-04 7.45e-09  5.83e+03    10s
  19   6.93692663e+09  4.25561724e+09  4.41e-04 3.73e-09  3.88e+03    10s
  20   6.72965262e+09  4.67345500e+09  3.33e-04 3.73e-09  2.97e+03    10s
  21   6.65086471e+09  4.75926730e+09  2.91e-04 3.73e-09  2.73e+03    11s
  22   6.57042549e+09  5.03001273e+09  2.49e-04 2.79e-09  2.23e+03    11s
  23   6.43895092e+09  5.38956026e+09  1.83e-04 2.79e-09  1.52e+03    11s
  24   6.31475683e+09  5.56491286e+09  1.20e-04 1.86e-09  1.08e+03    12s
  25   6.26131377e+09  5.67343514e+09  9.34e-05 2.79e-09  8.50e+02    12s
  26   6.22686491e+09  5.71073762e+09  7.51e-05 2.79e-09  7.46e+02    12s
  27   6.17737472e+09  5.83255186e+09  5.09e-05 1.86e-09  4.98e+02    13s
  28   6.14342267e+09  5.89637621e+09  3.47e-05 1.86e-09  3.57e+02    13s
  29   6.12392377e+09  5.93531956e+09  2.56e-05 1.86e-09  2.72e+02    13s
  30   6.10341162e+09  5.95829861e+09  1.61e-05 2.79e-09  2.10e+02    14s
  31   6.09501275e+09  5.98828291e+09  1.23e-05 1.86e-09  1.54e+02    14s
  32   6.08761785e+09  6.01598545e+09  9.04e-06 1.86e-09  1.03e+02    15s
  33   6.08272911e+09  6.02441580e+09  6.91e-06 1.86e-09  8.42e+01    15s
  34   6.07900181e+09  6.03841348e+09  5.30e-06 1.86e-09  5.86e+01    16s
  35   6.07578725e+09  6.04209018e+09  3.93e-06 1.86e-09  4.87e+01    16s
  36   6.07364454e+09  6.05403596e+09  3.04e-06 1.86e-09  2.83e+01    17s
  37   6.07252690e+09  6.05521402e+09  2.58e-06 1.86e-09  2.50e+01    17s
  38   6.07063856e+09  6.05837257e+09  1.80e-06 1.86e-09  1.77e+01    18s
  39   6.06873766e+09  6.06123305e+09  1.02e-06 1.86e-09  1.08e+01    18s
  40   6.06728585e+09  6.06433958e+09  4.31e-07 1.86e-09  4.26e+00    18s
  41   6.06656192e+09  6.06532001e+09  1.44e-07 1.86e-09  1.79e+00    19s
  42   6.06643824e+09  6.06584164e+09  9.77e-08 2.79e-09  8.62e-01    19s
  43   6.06626797e+09  6.06601597e+09  1.46e-07 1.86e-09  3.64e-01    19s
  44   6.06620108e+09  6.06608616e+09  2.74e-07 1.86e-09  1.66e-01    20s
  45   6.06618050e+09  6.06613533e+09  1.12e-07 2.79e-09  6.52e-02    20s
  46   6.06616588e+09  6.06616045e+09  7.04e-09 2.79e-09  7.83e-03    20s
  47   6.06616465e+09  6.06616461e+09  1.60e-09 3.65e-09  6.35e-05    21s
  48   6.06616465e+09  6.06616461e+09  3.05e-04 3.56e-09  6.35e-05    21s

Barrier solved model in 48 iterations and 21.03 seconds
Optimal objective 6.06616465e+09

Crossover log...

   74418 DPushes remaining with DInf 0.0000000e+00                21s
       0 DPushes remaining with DInf 0.0000000e+00                24s
Warning: Markowitz tolerance tightened to 0.5

  108818 PPushes remaining with PInf 9.4662075e-05                24s
   58397 PPushes remaining with PInf 8.3901144e-02                31s
   12728 PPushes remaining with PInf 1.5399628e-01                80s
       0 PPushes remaining with PInf 0.0000000e+00               105s

  Push phase complete: Pinf 0.0000000e+00, Dinf 5.2222363e+04    105s

Iteration    Objective       Primal Inf.    Dual Inf.      Time
  134713    6.0661646e+09   0.000000e+00   5.222236e+04    105s
  134870    6.0661646e+09   0.000000e+00   0.000000e+00    105s
  134870    6.0661646e+09   0.000000e+00   0.000000e+00    107s

Solved with barrier
Solved in 134870 iterations and 107.05 seconds
Optimal objective  6.066164638e+09
Warning: unscaled primal violation = 0.000884739 and residual = 0.000884739
